15	3	2
1980	1980	1980	
612	799	842	
422	23	24	
248	636	683	
19	891	972	
896	517	560	
857	892	898	
626	180	184	
454	146	147	
515	957	1050	
515	464	468	
58	326	344	
865	629	665	
713	314	343	
157	677	677	
717	470	476	
